\* The_truck_routing_problem_(both_distribution_centres) *\
Minimize
routing_cost: 666.666666667 Extra_trucks + 700 Pattern_0 + 700 Pattern_1
 + 525 Pattern_10 + 700 Pattern_100 + 700 Pattern_101 + 350 Pattern_102
 + 700 Pattern_103 + 700 Pattern_104 + 350 Pattern_105 + 700 Pattern_106
 + 700 Pattern_107 + 525 Pattern_108 + 525 Pattern_109 + 700 Pattern_11
 + 525 Pattern_110 + 700 Pattern_111 + 700 Pattern_112 + 700 Pattern_113
 + 700 Pattern_114 + 700 Pattern_115 + 525 Pattern_116 + 525 Pattern_117
 + 700 Pattern_118 + 700 Pattern_119 + 525 Pattern_12 + 350 Pattern_120
 + 700 Pattern_121 + 700 Pattern_122 + 350 Pattern_123 + 700 Pattern_124
 + 700 Pattern_125 + 525 Pattern_126 + 525 Pattern_127 + 525 Pattern_128
 + 700 Pattern_129 + 700 Pattern_13 + 700 Pattern_130 + 700 Pattern_131
 + 700 Pattern_132 + 350 Pattern_133 + 700 Pattern_134 + 525 Pattern_135
 + 700 Pattern_136 + 700 Pattern_137 + 700 Pattern_138 + 350 Pattern_139
 + 350 Pattern_14 + 700 Pattern_140 + 700 Pattern_141 + 350 Pattern_142
 + 700 Pattern_143 + 525 Pattern_144 + 700 Pattern_145 + 700 Pattern_146
 + 700 Pattern_147 + 700 Pattern_148 + 700 Pattern_149 + 700 Pattern_15
 + 700 Pattern_150 + 700 Pattern_151 + 525 Pattern_152 + 525 Pattern_153
 + 525 Pattern_154 + 700 Pattern_155 + 525 Pattern_156 + 700 Pattern_157
 + 700 Pattern_158 + 350 Pattern_159 + 700 Pattern_16 + 700 Pattern_160
 + 700 Pattern_161 + 700 Pattern_162 + 700 Pattern_163 + 700 Pattern_164
 + 700 Pattern_165 + 525 Pattern_166 + 525 Pattern_167 + 700 Pattern_168
 + 700 Pattern_169 + 350 Pattern_17 + 700 Pattern_170 + 700 Pattern_171
 + 525 Pattern_172 + 350 Pattern_173 + 700 Pattern_174 + 700 Pattern_175
 + 350 Pattern_176 + 700 Pattern_18 + 700 Pattern_19 + 700 Pattern_2
 + 525 Pattern_20 + 525 Pattern_21 + 700 Pattern_22 + 700 Pattern_23
 + 700 Pattern_24 + 525 Pattern_25 + 700 Pattern_26 + 350 Pattern_27
 + 525 Pattern_28 + 700 Pattern_29 + 700 Pattern_3 + 525 Pattern_30
 + 525 Pattern_31 + 525 Pattern_32 + 525 Pattern_33 + 525 Pattern_34
 + 700 Pattern_35 + 525 Pattern_36 + 525 Pattern_37 + 700 Pattern_38
 + 700 Pattern_39 + 700 Pattern_4 + 700 Pattern_40 + 700 Pattern_41
 + 700 Pattern_42 + 700 Pattern_43 + 525 Pattern_44 + 525 Pattern_45
 + 700 Pattern_46 + 700 Pattern_47 + 700 Pattern_48 + 700 Pattern_49
 + 525 Pattern_5 + 700 Pattern_50 + 525 Pattern_51 + 525 Pattern_52
 + 700 Pattern_53 + 700 Pattern_54 + 700 Pattern_55 + 700 Pattern_56
 + 525 Pattern_57 + 700 Pattern_58 + 700 Pattern_59 + 700 Pattern_6
 + 700 Pattern_60 + 350 Pattern_61 + 700 Pattern_62 + 700 Pattern_63
 + 700 Pattern_64 + 525 Pattern_65 + 525 Pattern_66 + 350 Pattern_67
 + 700 Pattern_68 + 700 Pattern_69 + 525 Pattern_7 + 350 Pattern_70
 + 700 Pattern_71 + 700 Pattern_72 + 700 Pattern_73 + 700 Pattern_74
 + 700 Pattern_75 + 700 Pattern_76 + 525 Pattern_77 + 700 Pattern_78
 + 700 Pattern_79 + 350 Pattern_8 + 700 Pattern_80 + 700 Pattern_81
 + 700 Pattern_82 + 700 Pattern_83 + 350 Pattern_84 + 700 Pattern_85
 + 700 Pattern_86 + 350 Pattern_87 + 700 Pattern_88 + 700 Pattern_89
 + 700 Pattern_9 + 700 Pattern_90 + 525 Pattern_91 + 700 Pattern_92
 + 525 Pattern_93 + 700 Pattern_94 + 525 Pattern_95 + 350 Pattern_96
 + 700 Pattern_97 + 525 Pattern_98 + 700 Pattern_99 + 1500 Wet_Leases
Subject To
Satisfying_demand_for_Noel_Leeming_Albany: Pattern_1 + Pattern_106
 + Pattern_124 + Pattern_143 + Pattern_161 + Pattern_19 + Pattern_37
 + Pattern_53 + Pattern_72 + Pattern_88 = 1
Satisfying_demand_for_Noel_Leeming_Botany: Pattern_104 + Pattern_121
 + Pattern_140 + Pattern_158 + Pattern_17 + Pattern_174 + Pattern_36
 + Pattern_52 + Pattern_68 + Pattern_85 = 1
Satisfying_demand_for_Noel_Leeming_Glenfield_Clearance: Pattern_1
 + Pattern_106 + Pattern_125 + Pattern_144 + Pattern_161 + Pattern_18
 + Pattern_38 + Pattern_53 + Pattern_72 + Pattern_88 = 1
Satisfying_demand_for_Noel_Leeming_Henderson: Pattern_113 + Pattern_133
 + Pattern_148 + Pattern_164 + Pattern_25 + Pattern_42 + Pattern_61
 + Pattern_7 + Pattern_74 + Pattern_91 = 1
Satisfying_demand_for_Noel_Leeming_Lunn_Avenue: Pattern_101 + Pattern_11
 + Pattern_117 + Pattern_139 + Pattern_155 + Pattern_170 + Pattern_30
 + Pattern_48 + Pattern_64 + Pattern_82 = 1
Satisfying_demand_for_Noel_Leeming_Manukau_Supa_Centre: Pattern_104
 + Pattern_122 + Pattern_140 + Pattern_157 + Pattern_16 + Pattern_175
 + Pattern_34 + Pattern_51 + Pattern_69 + Pattern_86 = 1
Satisfying_demand_for_Noel_Leeming_Manukau_Westfield: Pattern_103
 + Pattern_121 + Pattern_141 + Pattern_157 + Pattern_16 + Pattern_174
 + Pattern_35 + Pattern_52 + Pattern_68 + Pattern_86 = 1
Satisfying_demand_for_Noel_Leeming_Massey: Pattern_110 + Pattern_128
 + Pattern_146 + Pattern_167 + Pattern_24 + Pattern_41 + Pattern_5
 + Pattern_59 + Pattern_77 + Pattern_95 = 1
Satisfying_demand_for_Noel_Leeming_New_Lynn: Pattern_114 + Pattern_131
 + Pattern_147 + Pattern_167 + Pattern_23 + Pattern_40 + Pattern_57
 + Pattern_7 + Pattern_75 + Pattern_92 = 1
Satisfying_demand_for_Noel_Leeming_Newmarket: Pattern_100 + Pattern_120
 + Pattern_137 + Pattern_14 + Pattern_155 + Pattern_172 + Pattern_31
 + Pattern_47 + Pattern_66 + Pattern_81 = 1
Satisfying_demand_for_Noel_Leeming_Ormiston: Pattern_103 + Pattern_123
 + Pattern_141 + Pattern_15 + Pattern_158 + Pattern_174 + Pattern_35
 + Pattern_50 + Pattern_69 + Pattern_85 = 1
Satisfying_demand_for_Noel_Leeming_Papakura: Pattern_108 + Pattern_126
 + Pattern_145 + Pattern_162 + Pattern_2 + Pattern_20 + Pattern_39
 + Pattern_55 + Pattern_73 + Pattern_90 = 1
Satisfying_demand_for_Noel_Leeming_Papatoetoe: Pattern_115 + Pattern_134
 + Pattern_151 + Pattern_169 + Pattern_29 + Pattern_46 + Pattern_63
 + Pattern_80 + Pattern_9 + Pattern_97 = 1
Satisfying_demand_for_Noel_Leeming_Penrose_Clearance: Pattern_10 + Pattern_116
 + Pattern_135 + Pattern_152 + Pattern_169 + Pattern_28 + Pattern_46
 + Pattern_63 + Pattern_80 + Pattern_98 = 1
Satisfying_demand_for_Noel_Leeming_Queen_Street: Pattern_102 + Pattern_11
 + Pattern_119 + Pattern_136 + Pattern_153 + Pattern_170 + Pattern_32
 + Pattern_47 + Pattern_64 + Pattern_81 = 1
Satisfying_demand_for_Noel_Leeming_Royal_Oak: Pattern_100 + Pattern_119
 + Pattern_12 + Pattern_136 + Pattern_154 + Pattern_170 + Pattern_33
 + Pattern_48 + Pattern_65 + Pattern_84 = 1
Satisfying_demand_for_Noel_Leeming_St_Lukes_Mega: Pattern_110 + Pattern_130
 + Pattern_149 + Pattern_166 + Pattern_22 + Pattern_42 + Pattern_5
 + Pattern_56 + Pattern_76 + Pattern_91 = 1
Satisfying_demand_for_Noel_Leeming_St_Lukes_Westfield: Pattern_113
 + Pattern_128 + Pattern_148 + Pattern_164 + Pattern_27 + Pattern_40
 + Pattern_57 + Pattern_6 + Pattern_76 + Pattern_93 = 1
Satisfying_demand_for_Noel_Leeming_Sylvia_Park: Pattern_115 + Pattern_134
 + Pattern_151 + Pattern_169 + Pattern_29 + Pattern_45 + Pattern_63
 + Pattern_80 + Pattern_9 + Pattern_97 = 1
Satisfying_demand_for_Noel_Leeming_Wairau_Park: Pattern_0 + Pattern_107
 + Pattern_124 + Pattern_144 + Pattern_160 + Pattern_19 + Pattern_38
 + Pattern_54 + Pattern_71 + Pattern_89 = 1
Satisfying_demand_for_The_Warehouse_Airport: Pattern_10 + Pattern_115
 + Pattern_135 + Pattern_151 + Pattern_168 + Pattern_28 + Pattern_46
 + Pattern_62 + Pattern_79 + Pattern_97 = 1
Satisfying_demand_for_The_Warehouse_Albany: Pattern_1 + Pattern_106
 + Pattern_124 + Pattern_144 + Pattern_160 + Pattern_18 + Pattern_38
 + Pattern_53 + Pattern_72 + Pattern_89 = 1
Satisfying_demand_for_The_Warehouse_Atrium: Pattern_117 + Pattern_13
 + Pattern_138 + Pattern_154 + Pattern_172 + Pattern_30 + Pattern_47
 + Pattern_67 + Pattern_83 + Pattern_99 = 1
Satisfying_demand_for_The_Warehouse_Botany_Downs: Pattern_104 + Pattern_122
 + Pattern_142 + Pattern_15 + Pattern_159 + Pattern_175 + Pattern_35
 + Pattern_50 + Pattern_69 + Pattern_86 = 1
Satisfying_demand_for_The_Warehouse_Clendon: Pattern_108 + Pattern_126
 + Pattern_145 + Pattern_162 + Pattern_2 + Pattern_20 + Pattern_39
 + Pattern_55 + Pattern_73 + Pattern_90 = 1
Satisfying_demand_for_The_Warehouse_Glenfield_Mall: Pattern_0 + Pattern_107
 + Pattern_125 + Pattern_143 + Pattern_161 + Pattern_18 + Pattern_37
 + Pattern_54 + Pattern_71 + Pattern_89 = 1
Satisfying_demand_for_The_Warehouse_Lincoln_Road: Pattern_114 + Pattern_130
 + Pattern_149 + Pattern_165 + Pattern_26 + Pattern_4 + Pattern_42
 + Pattern_60 + Pattern_77 + Pattern_95 = 1
Satisfying_demand_for_The_Warehouse_Lunn_Avenue: Pattern_100 + Pattern_11
 + Pattern_119 + Pattern_136 + Pattern_155 + Pattern_173 + Pattern_32
 + Pattern_49 + Pattern_64 + Pattern_81 = 1
Satisfying_demand_for_The_Warehouse_Manukau: Pattern_105 + Pattern_122
 + Pattern_140 + Pattern_15 + Pattern_157 + Pattern_176 + Pattern_36
 + Pattern_50 + Pattern_68 + Pattern_85 = 1
Satisfying_demand_for_The_Warehouse_Milford: Pattern_0 + Pattern_107
 + Pattern_125 + Pattern_143 + Pattern_160 + Pattern_19 + Pattern_38
 + Pattern_54 + Pattern_71 + Pattern_88 = 1
Satisfying_demand_for_The_Warehouse_Mt_Roskill: Pattern_112 + Pattern_129
 + Pattern_150 + Pattern_164 + Pattern_24 + Pattern_3 + Pattern_40
 + Pattern_59 + Pattern_76 + Pattern_93 = 1
Satisfying_demand_for_The_Warehouse_New_Lynn: Pattern_111 + Pattern_131
 + Pattern_146 + Pattern_163 + Pattern_23 + Pattern_4 + Pattern_43
 + Pattern_58 + Pattern_75 + Pattern_92 = 1
Satisfying_demand_for_The_Warehouse_Newmarket: Pattern_118 + Pattern_13
 + Pattern_138 + Pattern_153 + Pattern_171 + Pattern_31 + Pattern_48
 + Pattern_66 + Pattern_83 + Pattern_99 = 1
Satisfying_demand_for_The_Warehouse_Pakuranga: Pattern_103 + Pattern_121
 + Pattern_141 + Pattern_158 + Pattern_16 + Pattern_175 + Pattern_34
 + Pattern_51 + Pattern_70 + Pattern_87 = 1
Satisfying_demand_for_The_Warehouse_Royal_Oak: Pattern_101 + Pattern_118
 + Pattern_12 + Pattern_137 + Pattern_156 + Pattern_171 + Pattern_33
 + Pattern_49 + Pattern_65 + Pattern_82 = 1
Satisfying_demand_for_The_Warehouse_St_Lukes: Pattern_113 + Pattern_129
 + Pattern_148 + Pattern_166 + Pattern_26 + Pattern_41 + Pattern_58
 + Pattern_78 + Pattern_8 + Pattern_96 = 1
Satisfying_demand_for_The_Warehouse_Sylvia_Park: Pattern_116 + Pattern_134
 + Pattern_152 + Pattern_168 + Pattern_29 + Pattern_45 + Pattern_62
 + Pattern_79 + Pattern_9 + Pattern_98 = 1
Satisfying_demand_for_The_Warehouse_Takanini: Pattern_109 + Pattern_127
 + Pattern_145 + Pattern_162 + Pattern_2 + Pattern_21 + Pattern_39
 + Pattern_55 + Pattern_73 + Pattern_90 = 1
Satisfying_demand_for_The_Warehouse_WestCity: Pattern_111 + Pattern_132
 + Pattern_147 + Pattern_165 + Pattern_22 + Pattern_3 + Pattern_43
 + Pattern_56 + Pattern_78 + Pattern_94 = 1
Satisfying_demand_for_The_Warehouse_Westgate: Pattern_112 + Pattern_132
 + Pattern_150 + Pattern_163 + Pattern_25 + Pattern_44 + Pattern_6
 + Pattern_60 + Pattern_74 + Pattern_94 = 1
max_number_of_shifts: - 2 Extra_trucks + Pattern_0 + Pattern_1 + Pattern_10
 + Pattern_100 + Pattern_101 + Pattern_102 + Pattern_103 + Pattern_104
 + Pattern_105 + Pattern_106 + Pattern_107 + Pattern_108 + Pattern_109
 + Pattern_11 + Pattern_110 + Pattern_111 + Pattern_112 + Pattern_113
 + Pattern_114 + Pattern_115 + Pattern_116 + Pattern_117 + Pattern_118
 + Pattern_119 + Pattern_12 + Pattern_120 + Pattern_121 + Pattern_122
 + Pattern_123 + Pattern_124 + Pattern_125 + Pattern_126 + Pattern_127
 + Pattern_128 + Pattern_129 + Pattern_13 + Pattern_130 + Pattern_131
 + Pattern_132 + Pattern_133 + Pattern_134 + Pattern_135 + Pattern_136
 + Pattern_137 + Pattern_138 + Pattern_139 + Pattern_14 + Pattern_140
 + Pattern_141 + Pattern_142 + Pattern_143 + Pattern_144 + Pattern_145
 + Pattern_146 + Pattern_147 + Pattern_148 + Pattern_149 + Pattern_15
 + Pattern_150 + Pattern_151 + Pattern_152 + Pattern_153 + Pattern_154
 + Pattern_155 + Pattern_156 + Pattern_157 + Pattern_158 + Pattern_159
 + Pattern_16 + Pattern_160 + Pattern_161 + Pattern_162 + Pattern_163
 + Pattern_164 + Pattern_165 + Pattern_166 + Pattern_167 + Pattern_168
 + Pattern_169 + Pattern_17 + Pattern_170 + Pattern_171 + Pattern_172
 + Pattern_173 + Pattern_174 + Pattern_175 + Pattern_176 + Pattern_18
 + Pattern_19 + Pattern_2 + Pattern_20 + Pattern_21 + Pattern_22 + Pattern_23
 + Pattern_24 + Pattern_25 + Pattern_26 + Pattern_27 + Pattern_28 + Pattern_29
 + Pattern_3 + Pattern_30 + Pattern_31 + Pattern_32 + Pattern_33 + Pattern_34
 + Pattern_35 + Pattern_36 + Pattern_37 + Pattern_38 + Pattern_39 + Pattern_4
 + Pattern_40 + Pattern_41 + Pattern_42 + Pattern_43 + Pattern_44 + Pattern_45
 + Pattern_46 + Pattern_47 + Pattern_48 + Pattern_49 + Pattern_5 + Pattern_50
 + Pattern_51 + Pattern_52 + Pattern_53 + Pattern_54 + Pattern_55 + Pattern_56
 + Pattern_57 + Pattern_58 + Pattern_59 + Pattern_6 + Pattern_60 + Pattern_61
 + Pattern_62 + Pattern_63 + Pattern_64 + Pattern_65 + Pattern_66 + Pattern_67
 + Pattern_68 + Pattern_69 + Pattern_7 + Pattern_70 + Pattern_71 + Pattern_72
 + Pattern_73 + Pattern_74 + Pattern_75 + Pattern_76 + Pattern_77 + Pattern_78
 + Pattern_79 + Pattern_8 + Pattern_80 + Pattern_81 + Pattern_82 + Pattern_83
 + Pattern_84 + Pattern_85 + Pattern_86 + Pattern_87 + Pattern_88 + Pattern_89
 + Pattern_9 + Pattern_90 + Pattern_91 + Pattern_92 + Pattern_93 + Pattern_94
 + Pattern_95 + Pattern_96 + Pattern_97 + Pattern_98 + Pattern_99 - Wet_Leases
 <= 50
Bounds
0 <= Extra_trucks <= 5
0 <= Wet_Leases <= 9999
Generals
Extra_trucks
Wet_Leases
Binaries
Pattern_0
Pattern_1
Pattern_10
Pattern_100
Pattern_101
Pattern_102
Pattern_103
Pattern_104
Pattern_105
Pattern_106
Pattern_107
Pattern_108
Pattern_109
Pattern_11
Pattern_110
Pattern_111
Pattern_112
Pattern_113
Pattern_114
Pattern_115
Pattern_116
Pattern_117
Pattern_118
Pattern_119
Pattern_12
Pattern_120
Pattern_121
Pattern_122
Pattern_123
Pattern_124
Pattern_125
Pattern_126
Pattern_127
Pattern_128
Pattern_129
Pattern_13
Pattern_130
Pattern_131
Pattern_132
Pattern_133
Pattern_134
Pattern_135
Pattern_136
Pattern_137
Pattern_138
Pattern_139
Pattern_14
Pattern_140
Pattern_141
Pattern_142
Pattern_143
Pattern_144
Pattern_145
Pattern_146
Pattern_147
Pattern_148
Pattern_149
Pattern_15
Pattern_150
Pattern_151
Pattern_152
Pattern_153
Pattern_154
Pattern_155
Pattern_156
Pattern_157
Pattern_158
Pattern_159
Pattern_16
Pattern_160
Pattern_161
Pattern_162
Pattern_163
Pattern_164
Pattern_165
Pattern_166
Pattern_167
Pattern_168
Pattern_169
Pattern_17
Pattern_170
Pattern_171
Pattern_172
Pattern_173
Pattern_174
Pattern_175
Pattern_176
Pattern_18
Pattern_19
Pattern_2
Pattern_20
Pattern_21
Pattern_22
Pattern_23
Pattern_24
Pattern_25
Pattern_26
Pattern_27
Pattern_28
Pattern_29
Pattern_3
Pattern_30
Pattern_31
Pattern_32
Pattern_33
Pattern_34
Pattern_35
Pattern_36
Pattern_37
Pattern_38
Pattern_39
Pattern_4
Pattern_40
Pattern_41
Pattern_42
Pattern_43
Pattern_44
Pattern_45
Pattern_46
Pattern_47
Pattern_48
Pattern_49
Pattern_5
Pattern_50
Pattern_51
Pattern_52
Pattern_53
Pattern_54
Pattern_55
Pattern_56
Pattern_57
Pattern_58
Pattern_59
Pattern_6
Pattern_60
Pattern_61
Pattern_62
Pattern_63
Pattern_64
Pattern_65
Pattern_66
Pattern_67
Pattern_68
Pattern_69
Pattern_7
Pattern_70
Pattern_71
Pattern_72
Pattern_73
Pattern_74
Pattern_75
Pattern_76
Pattern_77
Pattern_78
Pattern_79
Pattern_8
Pattern_80
Pattern_81
Pattern_82
Pattern_83
Pattern_84
Pattern_85
Pattern_86
Pattern_87
Pattern_88
Pattern_89
Pattern_9
Pattern_90
Pattern_91
Pattern_92
Pattern_93
Pattern_94
Pattern_95
Pattern_96
Pattern_97
Pattern_98
Pattern_99
End
